cif2pos.py                              
    1.000000000000000     
    14.7569999999999997    0.0000000000000000    0.0000000000000000
    -7.3784999999999998   12.7799368799999993    0.0000000000000000
     0.0000000000000000    0.0000000000000000   16.0000000000000000
   C    N    Na
    64     4     1
Direct
  0.0629714790361152  0.1212793084181704  0.0022299320735196
  0.1187824847933666  0.0657705939533341  0.0028483565039235
  0.2321237526525906  0.1238428869330813  0.0030560482593487
  0.2785296033053239  0.0582896454521228  0.0014209197183375
  0.3884180203286167  0.1060352251754131  0.9995675663558623
  0.4433605653802890  0.0492486339398646  0.9985696269749135
  0.5536912691254104  0.1048660812874722  0.9983512999533350
  0.6096572161320739  0.0504804026428208  0.9986248396363191
  0.7207483623912505  0.1095127443354546  0.9993837313517295
  0.7776138424806431  0.0556814056485431  1.0002178645245887
  0.8895116188123727  0.1133310181269583  0.0007623003194559
  0.9491053149206478  0.0616693152127505  0.0016460109778603
  0.0552845087372042  0.2810110297490380  0.9982257095010859
  0.1208394004636593  0.2345782660089797  0.0010467791746113
  0.2380998374567472  0.2977917007298525  0.0025014150382565
  0.2954210581066826  0.2413790189027005  0.0043121289532740
  0.4112615397264880  0.2885879576977952  0.0046476108025186
  0.4454184953655229  0.2141647593876118  1.0000461189079795
  0.5536679783044309  0.2683385839322178  0.9997128048286640
  0.6096301974224362  0.2162755350816048  0.9988720533222178
  0.7190646440561271  0.2770347876781629  0.9997910301781587
  0.7752536272928048  0.2218969876616633  0.9994921441398574
  0.8858095999518327  0.2784626952630376  0.9988599209969191
  0.9437858930683538  0.2241579487518547  0.9995070224291290
  0.0460824295956434  0.4457955998575909  0.9934477963612245
  0.1025499148542555  0.3906130519902872  0.9928562142028805
  0.2110341696799372  0.4477081417030956  0.9902178845897998
  0.2844336681173587  0.4133904578197851  0.9990721893116320
  0.5891852805109963  0.3773084421929446  0.0041868338525614
  0.7044752575346359  0.4438315426794661  0.0034876061127689
  0.7656318754442295  0.3892537445843462  0.0009446093843726
  0.8780859221073207  0.4447193596674562  0.9991583828995841
  0.9354886093128435  0.3895373194857962  0.9973216867232573
  0.0475131400279603  0.6123740358727244  0.9965310007013900
  0.1016124807681591  0.5563189343726364  0.9924653931174545
  0.2128933989811221  0.6124975891089297  0.9900491384261132
  0.2647849084579645  0.5560682697977530  0.9881127437791537
  0.3731430221769788  0.5923361325096448  0.9951798226516163
  0.7678174802666935  0.5591280635946783  0.0040283573692098
  0.8811048686955790  0.6121635023170166  0.0016452507314234
  0.9356629749312635  0.5561987937489322 -0.0008585622338894
  0.0529645943517506  0.7803723342490000  0.0005997625630340
  0.1066391597665575  0.7233382941059531 -0.0020818286506835
  0.2191496039773479  0.7781476954449391  0.9971096339493950
  0.2739654916030089  0.7218723149921450  0.9943442160946834
  0.3862414167886479  0.7688827084780699  0.9966391566318540
  0.4407435970171999  0.7079875060018558  0.9984108730969465
  0.5563335896215088  0.7711302505157444  1.0018431099800109
  0.7188467704544473  0.7784680863821831  0.0055643061798567
  0.7758629214958096  0.7215174209195317  0.0056275591707662
  0.8881412678964842  0.7817446083619841  0.0033968941644237
  0.9410083212063376  0.7240232685842519  0.0019328757018298
  0.0591596744834028  0.9518452838336474  0.0025503523342648
  0.1107443040273180  0.8921969725114444  0.0015818975615032
  0.2216434281244681  0.9466933172382386  0.0008265035356866
  0.2757363561437138  0.8886290776767752 -0.0009794945946145
  0.3869981718000701  0.9386671986929247  0.9984172423620827
  0.4419370125085184  0.8811854223365966  0.9978704724387281
  0.5535870597800883  0.9387809756924363  0.9983552540129740
  0.6094394336309178  0.8841128509588861  0.9994813089245381
  0.7215170972197539  0.9437595414604486  1.0006210728273570
  0.7787846991366160  0.8905549203952469  0.0021592933637924
  0.8917181534386105  0.9494841639192737  0.0021697582471673
  0.9469605815165190  0.8943441227945705  0.0028131706446922
  0.3850568704538711  0.5030244449753306  0.0040013506273592
  0.6127786336933045  0.7223467155936638  0.0081374243819880
  0.7195472418636291  0.6160269524234439  0.0065599683346686
  0.4999623138184638  0.3893004924024632  0.0090753898691397
  0.4511725234074062  0.5754635457856407  0.1303928933437313
 
  0.00000000E+00  0.00000000E+00  0.00000000E+00
  0.00000000E+00  0.00000000E+00  0.00000000E+00
  0.00000000E+00  0.00000000E+00  0.00000000E+00
  0.00000000E+00  0.00000000E+00  0.00000000E+00
  0.00000000E+00  0.00000000E+00  0.00000000E+00
  0.00000000E+00  0.00000000E+00  0.00000000E+00
  0.00000000E+00  0.00000000E+00  0.00000000E+00
  0.00000000E+00  0.00000000E+00  0.00000000E+00
  0.00000000E+00  0.00000000E+00  0.00000000E+00
  0.00000000E+00  0.00000000E+00  0.00000000E+00
  0.00000000E+00  0.00000000E+00  0.00000000E+00
  0.00000000E+00  0.00000000E+00  0.00000000E+00
  0.00000000E+00  0.00000000E+00  0.00000000E+00
  0.00000000E+00  0.00000000E+00  0.00000000E+00
  0.00000000E+00  0.00000000E+00  0.00000000E+00
  0.00000000E+00  0.00000000E+00  0.00000000E+00
  0.00000000E+00  0.00000000E+00  0.00000000E+00
  0.00000000E+00  0.00000000E+00  0.00000000E+00
  0.00000000E+00  0.00000000E+00  0.00000000E+00
  0.00000000E+00  0.00000000E+00  0.00000000E+00
  0.00000000E+00  0.00000000E+00  0.00000000E+00
  0.00000000E+00  0.00000000E+00  0.00000000E+00
  0.00000000E+00  0.00000000E+00  0.00000000E+00
  0.00000000E+00  0.00000000E+00  0.00000000E+00
  0.00000000E+00  0.00000000E+00  0.00000000E+00
  0.00000000E+00  0.00000000E+00  0.00000000E+00
  0.00000000E+00  0.00000000E+00  0.00000000E+00
  0.00000000E+00  0.00000000E+00  0.00000000E+00
  0.00000000E+00  0.00000000E+00  0.00000000E+00
  0.00000000E+00  0.00000000E+00  0.00000000E+00
  0.00000000E+00  0.00000000E+00  0.00000000E+00
  0.00000000E+00  0.00000000E+00  0.00000000E+00
  0.00000000E+00  0.00000000E+00  0.00000000E+00
  0.00000000E+00  0.00000000E+00  0.00000000E+00
  0.00000000E+00  0.00000000E+00  0.00000000E+00
  0.00000000E+00  0.00000000E+00  0.00000000E+00
  0.00000000E+00  0.00000000E+00  0.00000000E+00
  0.00000000E+00  0.00000000E+00  0.00000000E+00
  0.00000000E+00  0.00000000E+00  0.00000000E+00
  0.00000000E+00  0.00000000E+00  0.00000000E+00
  0.00000000E+00  0.00000000E+00  0.00000000E+00
  0.00000000E+00  0.00000000E+00  0.00000000E+00
  0.00000000E+00  0.00000000E+00  0.00000000E+00
  0.00000000E+00  0.00000000E+00  0.00000000E+00
  0.00000000E+00  0.00000000E+00  0.00000000E+00
  0.00000000E+00  0.00000000E+00  0.00000000E+00
  0.00000000E+00  0.00000000E+00  0.00000000E+00
  0.00000000E+00  0.00000000E+00  0.00000000E+00
  0.00000000E+00  0.00000000E+00  0.00000000E+00
  0.00000000E+00  0.00000000E+00  0.00000000E+00
  0.00000000E+00  0.00000000E+00  0.00000000E+00
  0.00000000E+00  0.00000000E+00  0.00000000E+00
  0.00000000E+00  0.00000000E+00  0.00000000E+00
  0.00000000E+00  0.00000000E+00  0.00000000E+00
  0.00000000E+00  0.00000000E+00  0.00000000E+00
  0.00000000E+00  0.00000000E+00  0.00000000E+00
  0.00000000E+00  0.00000000E+00  0.00000000E+00
  0.00000000E+00  0.00000000E+00  0.00000000E+00
  0.00000000E+00  0.00000000E+00  0.00000000E+00
  0.00000000E+00  0.00000000E+00  0.00000000E+00
  0.00000000E+00  0.00000000E+00  0.00000000E+00
  0.00000000E+00  0.00000000E+00  0.00000000E+00
  0.00000000E+00  0.00000000E+00  0.00000000E+00
  0.00000000E+00  0.00000000E+00  0.00000000E+00
  0.00000000E+00  0.00000000E+00  0.00000000E+00
  0.00000000E+00  0.00000000E+00  0.00000000E+00
  0.00000000E+00  0.00000000E+00  0.00000000E+00
  0.00000000E+00  0.00000000E+00  0.00000000E+00
  0.00000000E+00  0.00000000E+00  0.00000000E+00
